1247720
101,53,57,103,96,88,90,10,48,9,65,76,8,36,25,37,40,30,71,56,74,85,26,68,69,13,38,46,70,104,98,75,49,17,6,87,64,11,35,27,7,39,67,54,32,77,107,105,59,41,72,18,61,86,95,92,12,20,16,79,47,73,91,55,102,29,5,60,84,42,94,31,43,19,62,2,82,24,15,106,93,80,1,50,83,58,45,28,51,33,100,97,34,4,0,81,44,89,108,23,78,3,66,22,14,63,21,52,99
